SCIP version 5.0.0 [precision: 8 byte] [memory: block] [mode: optimized] [LP solver: NONE] [GitHash: 3bbd232]
Copyright (C) 2002-2017 Konrad-Zuse-Zentrum fuer Informationstechnik Berlin (ZIB)

External codes: 
  Readline EditLine w  GNU library for command line editing (gnu.org/s/readline)
  CppAD 20160000.1     Algorithmic Differentiation of C++ algorithms developed by B. Bell (www.coin-or.org/CppAD)
  ZLIB 1.2.5           General purpose compression library by J. Gailly and M. Adler (zlib.net)
  GMP 6.1.2            GNU Multiple Precision Arithmetic Library developed by T. Granlund (gmplib.org)

user parameter file <scip.set> not found - using default parameters

read problem <../../Split_data/output/spectf/2/1_sample_spectf.logreg>
============

File name	:	../../Split_data/output/spectf/2/1_sample_spectf.logreg
Problem name 	:	1_sample_spectf
Number of data	:	213
Number of var	:	44
The given data has linear independence

[dim=1] time: 0.010204
[dim=2] time: 0.018507
[dim=3] time: 0.026342
[dim=4] time: 0.03317
[dim=5] time: 0.039784
[dim=6] time: 0.046739
[dim=7] time: 0.05362
[dim=8] time: 0.060127
[dim=9] time: 0.066243
[dim=10] time: 0.072311
[dim=11] time: 0.084562
[dim=12] time: 0.092053
[dim=13] Time of forward = 0.098326sec.
AIC: 136.512
k: 12

[dim=44] time: 0.031818
[dim=43] time: 0.051266
[dim=42] time: 0.065579
[dim=41] time: 0.083746
[dim=40] time: 0.098829
[dim=39] time: 0.118238
[dim=38] time: 0.130103
[dim=37] time: 0.145319
[dim=36] time: 0.158984
[dim=35] time: 0.178761
[dim=34] time: 0.191339
[dim=33] time: 0.203896
[dim=32] time: 0.21409
[dim=31] time: 0.226793
[dim=30] time: 0.238375
[dim=29] time: 0.247375
[dim=28] time: 0.254928
[dim=27] time: 0.264656
[dim=26] time: 0.273366
[dim=25] time: 0.280113
[dim=24] time: 0.286344
[dim=23] time: 0.294049
[dim=22] time: 0.300272
[dim=21] Time of backward = 0.30689sec.
AIC: 134.631
k: 22
